c description: Perfect Matching Principle on 
c generator: CNFgen (0.9.0)
c copyright: (C) 2012-2020 Massimo Lauria <massimo.lauria@uniroma1.it>
c url: https://massimolauria.net/cnfgen
c
p cnf 60 255
-1 -2 0
-1 -3 0
-1 -4 0
-2 -3 0
-2 -4 0
-3 -4 0
1 2 3 4 0
-5 -6 0
-5 -7 0
-5 -8 0
-6 -7 0
-6 -8 0
-7 -8 0
5 6 7 8 0
-5 -9 0
-5 -10 0
-5 -11 0
-9 -10 0
-9 -11 0
-10 -11 0
5 9 10 11 0
-1 -12 0
1 12 0
-13 -14 0
13 14 0
-15 -16 0
-15 -17 0
-15 -18 0
-16 -17 0
-16 -18 0
-17 -18 0
15 16 17 18 0
-19 -20 0
-19 -21 0
-19 -22 0
-20 -21 0
-20 -22 0
-21 -22 0
19 20 21 22 0
-23 -24 0
23 24 0
-12 -25 0
-12 -26 0
-25 -26 0
12 25 26 0
-27 -28 0
-27 -29 0
-27 -30 0
-28 -29 0
-28 -30 0
-29 -30 0
27 28 29 30 0
-23 -27 0
-23 -31 0
-23 -32 0
-23 -33 0
-23 -34 0
-23 -35 0
-27 -31 0
-27 -32 0
-27 -33 0
-27 -34 0
-27 -35 0
-31 -32 0
-31 -33 0
-31 -34 0
-31 -35 0
-32 -33 0
-32 -34 0
-32 -35 0
-33 -34 0
-33 -35 0
-34 -35 0
23 27 31 32 33 34 35 0
-9 -13 0
-9 -36 0
-9 -37 0
-13 -36 0
-13 -37 0
-36 -37 0
9 13 36 37 0
-25 -38 0
-25 -39 0
-25 -40 0
-25 -41 0
-38 -39 0
-38 -40 0
-38 -41 0
-39 -40 0
-39 -41 0
-40 -41 0
25 38 39 40 41 0
-15 -28 0
-15 -42 0
-15 -43 0
-15 -44 0
-28 -42 0
-28 -43 0
-28 -44 0
-42 -43 0
-42 -44 0
-43 -44 0
15 28 42 43 44 0
-10 -36 0
-10 -45 0
-10 -46 0
-36 -45 0
-36 -46 0
-45 -46 0
10 36 45 46 0
-6 -19 0
-6 -42 0
-6 -47 0
-6 -48 0
-6 -49 0
-19 -42 0
-19 -47 0
-19 -48 0
-19 -49 0
-42 -47 0
-42 -48 0
-42 -49 0
-47 -48 0
-47 -49 0
-48 -49 0
6 19 42 47 48 49 0
-11 -47 0
-11 -50 0
-11 -51 0
-47 -50 0
-47 -51 0
-50 -51 0
11 47 50 51 0
-7 -20 0
-7 -31 0
-7 -38 0
-7 -52 0
-7 -53 0
-7 -54 0
-20 -31 0
-20 -38 0
-20 -52 0
-20 -53 0
-20 -54 0
-31 -38 0
-31 -52 0
-31 -53 0
-31 -54 0
-38 -52 0
-38 -53 0
-38 -54 0
-52 -53 0
-52 -54 0
-53 -54 0
7 20 31 38 52 53 54 0
-32 -50 0
-32 -55 0
-50 -55 0
32 50 55 0
-16 -26 0
-16 -56 0
-16 -57 0
-26 -56 0
-26 -57 0
-56 -57 0
16 26 56 57 0
-14 -58 0
14 58 0
-2 -17 0
-2 -21 0
-2 -33 0
-2 -52 0
-17 -21 0
-17 -33 0
-17 -52 0
-21 -33 0
-21 -52 0
-33 -52 0
2 17 21 33 52 0
-37 -48 0
37 48 0
-29 -39 0
-29 -43 0
-29 -59 0
-39 -43 0
-39 -59 0
-43 -59 0
29 39 43 59 0
-3 -18 0
3 18 0
-4 -22 0
-4 -34 0
-22 -34 0
4 22 34 0
-45 -53 0
-45 -56 0
-45 -60 0
-53 -56 0
-53 -60 0
-56 -60 0
45 53 56 60 0
-8 -44 0
-8 -49 0
-8 -54 0
-8 -58 0
-8 -59 0
-44 -49 0
-44 -54 0
-44 -58 0
-44 -59 0
-49 -54 0
-49 -58 0
-49 -59 0
-54 -58 0
-54 -59 0
-58 -59 0
8 44 49 54 58 59 0
40 0
-24 -30 0
-24 -35 0
-24 -41 0
-24 -46 0
-24 -51 0
-24 -55 0
-24 -57 0
-24 -60 0
-30 -35 0
-30 -41 0
-30 -46 0
-30 -51 0
-30 -55 0
-30 -57 0
-30 -60 0
-35 -41 0
-35 -46 0
-35 -51 0
-35 -55 0
-35 -57 0
-35 -60 0
-41 -46 0
-41 -51 0
-41 -55 0
-41 -57 0
-41 -60 0
-46 -51 0
-46 -55 0
-46 -57 0
-46 -60 0
-51 -55 0
-51 -57 0
-51 -60 0
-55 -57 0
-55 -60 0
-57 -60 0
24 30 35 41 46 51 55 57 60 0